;; sequence(s): A86500
;; terms: 1 9 18 50 75 147 196 324 405 605 726 1014 1183 1575 1800 2312 2601 3249 3610 4410
;; small program: (1 + ((x mod 2) + x)) * (1 + loop(x + y, x, x))
;; fast program: (1 + ((x mod 2) + x)) * (((1 + x) * (2 + x)) div 2)
(set-logic UFNIA)
(define-fun divf ((a Int) (b Int)) Int (ite (< 0 b) (div a b) (div (- a) (- b))))
(define-fun modf ((a Int) (b Int)) Int (ite (< 0 b) (mod a b) (- (mod (- a) (- b)))))
(declare-fun f0 (Int Int) Int)
(declare-fun g0 (Int) Int)
(declare-fun h0 (Int) Int)
(declare-fun u0 (Int Int) Int)
(declare-fun v0 (Int) Int)
(declare-fun small (Int) Int)
(declare-fun fast (Int) Int)
(assert (forall ((x Int) (y Int)) (= (f0 x y) (+ x y))))
(assert (forall ((x Int)) (= (g0 x) x)))
(assert (forall ((x Int)) (= (h0 x) x)))
(assert (forall ((x Int) (y Int)) (= (u0 x y) (ite (<= x 0) y (f0 (u0 (- x 1) y) x)))))
(assert (forall ((x Int)) (= (v0 x) (u0 (g0 x) (h0 x)))))
(assert (forall ((x Int)) (= (small x) (* (+ 1 (+ (modf x 2) x)) (+ 1 (v0 x))))))
(assert (forall ((x Int)) (= (fast x) (* (+ 1 (+ (modf x 2) x)) (divf (* (+ 1 x) (+ 2 x)) 2)))))
(assert (exists ((c Int)) (and (>= c 0) (not (= (small c) (fast c))))))
(check-sat)
